Problem:    
Rows:       26
Columns:    18 (9 integer, 0 binary)
Non-zeros:  34
Status:     INTEGER OPTIMAL
Objective:  obj = 100 (MINimum)

   No.   Row name        Activity     Lower bound   Upper bound
------ ------------    ------------- ------------- -------------
     1 c0                          1             1             = 
     2 c1                          1             1             = 
     3 c2                          1             1             = 
     4 c3                          1             1             = 
     5 c4                          1             1             = 
     6 c5                          1             1             = 
     7 c6                          1             1             = 
     8 c7                          1             1             = 
     9 c8                          1             1             = 
    10 c9                          1             1               
    11 c10                         1             1               
    12 c11                         2             1               
    13 c12                         1             1               
    14 c13                         1             1               
    15 c14                         1             1               
    16 c15                         1             1               
    17 c16                         2             1               
    18 i0                          0             0               
    19 i1                          1             0               
    20 i2                          0             0               
    21 i3                          1             0               
    22 i4                          2             0               
    23 i5                          0             0               
    24 i6                          1             0               
    25 i7                          2             0               
    26 i8                          3             0               

   No. Column name       Activity     Lower bound   Upper bound
------ ------------    ------------- ------------- -------------
     1 x1           *              0             0            20 
     2 x4           *              1             0            20 
     3 x2           *              0             0            20 
     4 x5           *              1             0            20 
     5 x8           *              2             0            20 
     6 x3           *              0             0            20 
     7 x6           *              1             0            20 
     8 x7           *              2             0            20 
     9 x9           *              3             0            20 
    10 x11                         1             0               
    11 x42                         1             0               
    12 x21                         1             0               
    13 x52                         1             0               
    14 x83                         1             0               
    15 x31                         1             0               
    16 x65                         1             0               
    17 x75                         1             0               
    18 x94                         1             0               

Integer feasibility conditions:

KKT.PE: max.abs.err = 0.00e+00 on row 0
        max.rel.err = 0.00e+00 on row 0
        High quality

KKT.PB: max.abs.err = 0.00e+00 on row 0
        max.rel.err = 0.00e+00 on row 0
        High quality

End of output
